\* HolidayPlanning *\
Maximize
OBJ: 14.5 being_off_Fri_2025_01_03___Fri_2025_01_10
 + 5.6 being_off_Fri_2025_01_03___Mon_2025_01_06
 + 3.5 being_off_Fri_2025_01_03___Sun_2025_01_05
 + 11.9 being_off_Fri_2025_01_03___Thu_2025_01_09
 + 7.7 being_off_Fri_2025_01_03___Tue_2025_01_07
 + 9.8 being_off_Fri_2025_01_03___Wed_2025_01_08
 + 7.7 being_off_Mon_2025_01_06___Fri_2025_01_10
 + 5.1 being_off_Mon_2025_01_06___Thu_2025_01_09
 + 3 being_off_Mon_2025_01_06___Wed_2025_01_08
 + 11.9 being_off_Sat_2025_01_04___Fri_2025_01_10
 + 3 being_off_Sat_2025_01_04___Mon_2025_01_06
 + 9.3 being_off_Sat_2025_01_04___Thu_2025_01_09
 + 5.1 being_off_Sat_2025_01_04___Tue_2025_01_07
 + 7.2 being_off_Sat_2025_01_04___Wed_2025_01_08
 + 9.8 being_off_Sun_2025_01_05___Fri_2025_01_10
 + 7.2 being_off_Sun_2025_01_05___Thu_2025_01_09
 + 3 being_off_Sun_2025_01_05___Tue_2025_01_07
 + 5.1 being_off_Sun_2025_01_05___Wed_2025_01_08
 + 16.6 being_off_Thu_2025_01_02___Fri_2025_01_10
 + 7.7 being_off_Thu_2025_01_02___Mon_2025_01_06
 + 3.5 being_off_Thu_2025_01_02___Sat_2025_01_04
 + 5.6 being_off_Thu_2025_01_02___Sun_2025_01_05
 + 14 being_off_Thu_2025_01_02___Thu_2025_01_09
 + 9.8 being_off_Thu_2025_01_02___Tue_2025_01_07
 + 11.9 being_off_Thu_2025_01_02___Wed_2025_01_08
 + 5.6 being_off_Tue_2025_01_07___Fri_2025_01_10
 + 3 being_off_Tue_2025_01_07___Thu_2025_01_09
 + 3.5 being_off_Wed_2025_01_01___Fri_2025_01_03
 + 18.7 being_off_Wed_2025_01_01___Fri_2025_01_10
 + 9.8 being_off_Wed_2025_01_01___Mon_2025_01_06
 + 5.6 being_off_Wed_2025_01_01___Sat_2025_01_04
 + 7.7 being_off_Wed_2025_01_01___Sun_2025_01_05
 + 16.1 being_off_Wed_2025_01_01___Thu_2025_01_09
 + 11.9 being_off_Wed_2025_01_01___Tue_2025_01_07
 + 14 being_off_Wed_2025_01_01___Wed_2025_01_08
 + 3.5 being_off_Wed_2025_01_08___Fri_2025_01_10
Subject To
BudgetConstraint: being_off_Fri_2025_01_03___Fri_2025_01_03
 + 5 being_off_Fri_2025_01_03___Fri_2025_01_10
 + being_off_Fri_2025_01_03___Mon_2025_01_06
 + being_off_Fri_2025_01_03___Sat_2025_01_04
 + being_off_Fri_2025_01_03___Sun_2025_01_05
 + 4 being_off_Fri_2025_01_03___Thu_2025_01_09
 + 2 being_off_Fri_2025_01_03___Tue_2025_01_07
 + 3 being_off_Fri_2025_01_03___Wed_2025_01_08
 + being_off_Fri_2025_01_10___Fri_2025_01_10
 + 4 being_off_Mon_2025_01_06___Fri_2025_01_10
 + 3 being_off_Mon_2025_01_06___Thu_2025_01_09
 + being_off_Mon_2025_01_06___Tue_2025_01_07
 + 2 being_off_Mon_2025_01_06___Wed_2025_01_08
 + 4 being_off_Sat_2025_01_04___Fri_2025_01_10
 + 3 being_off_Sat_2025_01_04___Thu_2025_01_09
 + being_off_Sat_2025_01_04___Tue_2025_01_07
 + 2 being_off_Sat_2025_01_04___Wed_2025_01_08
 + 4 being_off_Sun_2025_01_05___Fri_2025_01_10
 + 3 being_off_Sun_2025_01_05___Thu_2025_01_09
 + being_off_Sun_2025_01_05___Tue_2025_01_07
 + 2 being_off_Sun_2025_01_05___Wed_2025_01_08
 + 2 being_off_Thu_2025_01_02___Fri_2025_01_03
 + 6 being_off_Thu_2025_01_02___Fri_2025_01_10
 + 2 being_off_Thu_2025_01_02___Mon_2025_01_06
 + 2 being_off_Thu_2025_01_02___Sat_2025_01_04
 + 2 being_off_Thu_2025_01_02___Sun_2025_01_05
 + being_off_Thu_2025_01_02___Thu_2025_01_02
 + 5 being_off_Thu_2025_01_02___Thu_2025_01_09
 + 3 being_off_Thu_2025_01_02___Tue_2025_01_07
 + 4 being_off_Thu_2025_01_02___Wed_2025_01_08
 + 2 being_off_Thu_2025_01_09___Fri_2025_01_10
 + being_off_Thu_2025_01_09___Thu_2025_01_09
 + 4 being_off_Tue_2025_01_07___Fri_2025_01_10
 + 3 being_off_Tue_2025_01_07___Thu_2025_01_09
 + being_off_Tue_2025_01_07___Tue_2025_01_07
 + 2 being_off_Tue_2025_01_07___Wed_2025_01_08
 + 2 being_off_Wed_2025_01_01___Fri_2025_01_03
 + 6 being_off_Wed_2025_01_01___Fri_2025_01_10
 + 2 being_off_Wed_2025_01_01___Mon_2025_01_06
 + 2 being_off_Wed_2025_01_01___Sat_2025_01_04
 + 2 being_off_Wed_2025_01_01___Sun_2025_01_05
 + being_off_Wed_2025_01_01___Thu_2025_01_02
 + 5 being_off_Wed_2025_01_01___Thu_2025_01_09
 + 3 being_off_Wed_2025_01_01___Tue_2025_01_07
 + 4 being_off_Wed_2025_01_01___Wed_2025_01_08
 + 3 being_off_Wed_2025_01_08___Fri_2025_01_10
 + 2 being_off_Wed_2025_01_08___Thu_2025_01_09
 + being_off_Wed_2025_01_08___Wed_2025_01_08 <= 30
OnePeriodPerDay_2025_01_01: being_off_Wed_2025_01_01___Fri_2025_01_03
 + being_off_Wed_2025_01_01___Fri_2025_01_10
 + being_off_Wed_2025_01_01___Mon_2025_01_06
 + being_off_Wed_2025_01_01___Sat_2025_01_04
 + being_off_Wed_2025_01_01___Sun_2025_01_05
 + being_off_Wed_2025_01_01___Thu_2025_01_02
 + being_off_Wed_2025_01_01___Thu_2025_01_09
 + being_off_Wed_2025_01_01___Tue_2025_01_07
 + being_off_Wed_2025_01_01___Wed_2025_01_01
 + being_off_Wed_2025_01_01___Wed_2025_01_08 <= 1
OnePeriodPerDay_2025_01_02: being_off_Thu_2025_01_02___Fri_2025_01_03
 + being_off_Thu_2025_01_02___Fri_2025_01_10
 + being_off_Thu_2025_01_02___Mon_2025_01_06
 + being_off_Thu_2025_01_02___Sat_2025_01_04
 + being_off_Thu_2025_01_02___Sun_2025_01_05
 + being_off_Thu_2025_01_02___Thu_2025_01_02
 + being_off_Thu_2025_01_02___Thu_2025_01_09
 + being_off_Thu_2025_01_02___Tue_2025_01_07
 + being_off_Thu_2025_01_02___Wed_2025_01_08
 + being_off_Wed_2025_01_01___Fri_2025_01_03
 + being_off_Wed_2025_01_01___Fri_2025_01_10
 + being_off_Wed_2025_01_01___Mon_2025_01_06
 + being_off_Wed_2025_01_01___Sat_2025_01_04
 + being_off_Wed_2025_01_01___Sun_2025_01_05
 + being_off_Wed_2025_01_01___Thu_2025_01_02
 + being_off_Wed_2025_01_01___Thu_2025_01_09
 + being_off_Wed_2025_01_01___Tue_2025_01_07
 + being_off_Wed_2025_01_01___Wed_2025_01_08 <= 1
OnePeriodPerDay_2025_01_03: being_off_Fri_2025_01_03___Fri_2025_01_03
 + being_off_Fri_2025_01_03___Fri_2025_01_10
 + being_off_Fri_2025_01_03___Mon_2025_01_06
 + being_off_Fri_2025_01_03___Sat_2025_01_04
 + being_off_Fri_2025_01_03___Sun_2025_01_05
 + being_off_Fri_2025_01_03___Thu_2025_01_09
 + being_off_Fri_2025_01_03___Tue_2025_01_07
 + being_off_Fri_2025_01_03___Wed_2025_01_08
 + being_off_Thu_2025_01_02___Fri_2025_01_03
 + being_off_Thu_2025_01_02___Fri_2025_01_10
 + being_off_Thu_2025_01_02___Mon_2025_01_06
 + being_off_Thu_2025_01_02___Sat_2025_01_04
 + being_off_Thu_2025_01_02___Sun_2025_01_05
 + being_off_Thu_2025_01_02___Thu_2025_01_09
 + being_off_Thu_2025_01_02___Tue_2025_01_07
 + being_off_Thu_2025_01_02___Wed_2025_01_08
 + being_off_Wed_2025_01_01___Fri_2025_01_03
 + being_off_Wed_2025_01_01___Fri_2025_01_10
 + being_off_Wed_2025_01_01___Mon_2025_01_06
 + being_off_Wed_2025_01_01___Sat_2025_01_04
 + being_off_Wed_2025_01_01___Sun_2025_01_05
 + being_off_Wed_2025_01_01___Thu_2025_01_09
 + being_off_Wed_2025_01_01___Tue_2025_01_07
 + being_off_Wed_2025_01_01___Wed_2025_01_08 <= 1
OnePeriodPerDay_2025_01_04: being_off_Fri_2025_01_03___Fri_2025_01_10
 + being_off_Fri_2025_01_03___Mon_2025_01_06
 + being_off_Fri_2025_01_03___Sat_2025_01_04
 + being_off_Fri_2025_01_03___Sun_2025_01_05
 + being_off_Fri_2025_01_03___Thu_2025_01_09
 + being_off_Fri_2025_01_03___Tue_2025_01_07
 + being_off_Fri_2025_01_03___Wed_2025_01_08
 + being_off_Sat_2025_01_04___Fri_2025_01_10
 + being_off_Sat_2025_01_04___Mon_2025_01_06
 + being_off_Sat_2025_01_04___Sat_2025_01_04
 + being_off_Sat_2025_01_04___Sun_2025_01_05
 + being_off_Sat_2025_01_04___Thu_2025_01_09
 + being_off_Sat_2025_01_04___Tue_2025_01_07
 + being_off_Sat_2025_01_04___Wed_2025_01_08
 + being_off_Thu_2025_01_02___Fri_2025_01_10
 + being_off_Thu_2025_01_02___Mon_2025_01_06
 + being_off_Thu_2025_01_02___Sat_2025_01_04
 + being_off_Thu_2025_01_02___Sun_2025_01_05
 + being_off_Thu_2025_01_02___Thu_2025_01_09
 + being_off_Thu_2025_01_02___Tue_2025_01_07
 + being_off_Thu_2025_01_02___Wed_2025_01_08
 + being_off_Wed_2025_01_01___Fri_2025_01_10
 + being_off_Wed_2025_01_01___Mon_2025_01_06
 + being_off_Wed_2025_01_01___Sat_2025_01_04
 + being_off_Wed_2025_01_01___Sun_2025_01_05
 + being_off_Wed_2025_01_01___Thu_2025_01_09
 + being_off_Wed_2025_01_01___Tue_2025_01_07
 + being_off_Wed_2025_01_01___Wed_2025_01_08 <= 1
OnePeriodPerDay_2025_01_05: being_off_Fri_2025_01_03___Fri_2025_01_10
 + being_off_Fri_2025_01_03___Mon_2025_01_06
 + being_off_Fri_2025_01_03___Sun_2025_01_05
 + being_off_Fri_2025_01_03___Thu_2025_01_09
 + being_off_Fri_2025_01_03___Tue_2025_01_07
 + being_off_Fri_2025_01_03___Wed_2025_01_08
 + being_off_Sat_2025_01_04___Fri_2025_01_10
 + being_off_Sat_2025_01_04___Mon_2025_01_06
 + being_off_Sat_2025_01_04___Sun_2025_01_05
 + being_off_Sat_2025_01_04___Thu_2025_01_09
 + being_off_Sat_2025_01_04___Tue_2025_01_07
 + being_off_Sat_2025_01_04___Wed_2025_01_08
 + being_off_Sun_2025_01_05___Fri_2025_01_10
 + being_off_Sun_2025_01_05___Mon_2025_01_06
 + being_off_Sun_2025_01_05___Sun_2025_01_05
 + being_off_Sun_2025_01_05___Thu_2025_01_09
 + being_off_Sun_2025_01_05___Tue_2025_01_07
 + being_off_Sun_2025_01_05___Wed_2025_01_08
 + being_off_Thu_2025_01_02___Fri_2025_01_10
 + being_off_Thu_2025_01_02___Mon_2025_01_06
 + being_off_Thu_2025_01_02___Sun_2025_01_05
 + being_off_Thu_2025_01_02___Thu_2025_01_09
 + being_off_Thu_2025_01_02___Tue_2025_01_07
 + being_off_Thu_2025_01_02___Wed_2025_01_08
 + being_off_Wed_2025_01_01___Fri_2025_01_10
 + being_off_Wed_2025_01_01___Mon_2025_01_06
 + being_off_Wed_2025_01_01___Sun_2025_01_05
 + being_off_Wed_2025_01_01___Thu_2025_01_09
 + being_off_Wed_2025_01_01___Tue_2025_01_07
 + being_off_Wed_2025_01_01___Wed_2025_01_08 <= 1
OnePeriodPerDay_2025_01_06: being_off_Fri_2025_01_03___Fri_2025_01_10
 + being_off_Fri_2025_01_03___Mon_2025_01_06
 + being_off_Fri_2025_01_03___Thu_2025_01_09
 + being_off_Fri_2025_01_03___Tue_2025_01_07
 + being_off_Fri_2025_01_03___Wed_2025_01_08
 + being_off_Mon_2025_01_06___Fri_2025_01_10
 + being_off_Mon_2025_01_06___Mon_2025_01_06
 + being_off_Mon_2025_01_06___Thu_2025_01_09
 + being_off_Mon_2025_01_06___Tue_2025_01_07
 + being_off_Mon_2025_01_06___Wed_2025_01_08
 + being_off_Sat_2025_01_04___Fri_2025_01_10
 + being_off_Sat_2025_01_04___Mon_2025_01_06
 + being_off_Sat_2025_01_04___Thu_2025_01_09
 + being_off_Sat_2025_01_04___Tue_2025_01_07
 + being_off_Sat_2025_01_04___Wed_2025_01_08
 + being_off_Sun_2025_01_05___Fri_2025_01_10
 + being_off_Sun_2025_01_05___Mon_2025_01_06
 + being_off_Sun_2025_01_05___Thu_2025_01_09
 + being_off_Sun_2025_01_05___Tue_2025_01_07
 + being_off_Sun_2025_01_05___Wed_2025_01_08
 + being_off_Thu_2025_01_02___Fri_2025_01_10
 + being_off_Thu_2025_01_02___Mon_2025_01_06
 + being_off_Thu_2025_01_02___Thu_2025_01_09
 + being_off_Thu_2025_01_02___Tue_2025_01_07
 + being_off_Thu_2025_01_02___Wed_2025_01_08
 + being_off_Wed_2025_01_01___Fri_2025_01_10
 + being_off_Wed_2025_01_01___Mon_2025_01_06
 + being_off_Wed_2025_01_01___Thu_2025_01_09
 + being_off_Wed_2025_01_01___Tue_2025_01_07
 + being_off_Wed_2025_01_01___Wed_2025_01_08 <= 1
OnePeriodPerDay_2025_01_07: being_off_Fri_2025_01_03___Fri_2025_01_10
 + being_off_Fri_2025_01_03___Thu_2025_01_09
 + being_off_Fri_2025_01_03___Tue_2025_01_07
 + being_off_Fri_2025_01_03___Wed_2025_01_08
 + being_off_Mon_2025_01_06___Fri_2025_01_10
 + being_off_Mon_2025_01_06___Thu_2025_01_09
 + being_off_Mon_2025_01_06___Tue_2025_01_07
 + being_off_Mon_2025_01_06___Wed_2025_01_08
 + being_off_Sat_2025_01_04___Fri_2025_01_10
 + being_off_Sat_2025_01_04___Thu_2025_01_09
 + being_off_Sat_2025_01_04___Tue_2025_01_07
 + being_off_Sat_2025_01_04___Wed_2025_01_08
 + being_off_Sun_2025_01_05___Fri_2025_01_10
 + being_off_Sun_2025_01_05___Thu_2025_01_09
 + being_off_Sun_2025_01_05___Tue_2025_01_07
 + being_off_Sun_2025_01_05___Wed_2025_01_08
 + being_off_Thu_2025_01_02___Fri_2025_01_10
 + being_off_Thu_2025_01_02___Thu_2025_01_09
 + being_off_Thu_2025_01_02___Tue_2025_01_07
 + being_off_Thu_2025_01_02___Wed_2025_01_08
 + being_off_Tue_2025_01_07___Fri_2025_01_10
 + being_off_Tue_2025_01_07___Thu_2025_01_09
 + being_off_Tue_2025_01_07___Tue_2025_01_07
 + being_off_Tue_2025_01_07___Wed_2025_01_08
 + being_off_Wed_2025_01_01___Fri_2025_01_10
 + being_off_Wed_2025_01_01___Thu_2025_01_09
 + being_off_Wed_2025_01_01___Tue_2025_01_07
 + being_off_Wed_2025_01_01___Wed_2025_01_08 <= 1
OnePeriodPerDay_2025_01_08: being_off_Fri_2025_01_03___Fri_2025_01_10
 + being_off_Fri_2025_01_03___Thu_2025_01_09
 + being_off_Fri_2025_01_03___Wed_2025_01_08
 + being_off_Mon_2025_01_06___Fri_2025_01_10
 + being_off_Mon_2025_01_06___Thu_2025_01_09
 + being_off_Mon_2025_01_06___Wed_2025_01_08
 + being_off_Sat_2025_01_04___Fri_2025_01_10
 + being_off_Sat_2025_01_04___Thu_2025_01_09
 + being_off_Sat_2025_01_04___Wed_2025_01_08
 + being_off_Sun_2025_01_05___Fri_2025_01_10
 + being_off_Sun_2025_01_05___Thu_2025_01_09
 + being_off_Sun_2025_01_05___Wed_2025_01_08
 + being_off_Thu_2025_01_02___Fri_2025_01_10
 + being_off_Thu_2025_01_02___Thu_2025_01_09
 + being_off_Thu_2025_01_02___Wed_2025_01_08
 + being_off_Tue_2025_01_07___Fri_2025_01_10
 + being_off_Tue_2025_01_07___Thu_2025_01_09
 + being_off_Tue_2025_01_07___Wed_2025_01_08
 + being_off_Wed_2025_01_01___Fri_2025_01_10
 + being_off_Wed_2025_01_01___Thu_2025_01_09
 + being_off_Wed_2025_01_01___Wed_2025_01_08
 + being_off_Wed_2025_01_08___Fri_2025_01_10
 + being_off_Wed_2025_01_08___Thu_2025_01_09
 + being_off_Wed_2025_01_08___Wed_2025_01_08 <= 1
OnePeriodPerDay_2025_01_09: being_off_Fri_2025_01_03___Fri_2025_01_10
 + being_off_Fri_2025_01_03___Thu_2025_01_09
 + being_off_Mon_2025_01_06___Fri_2025_01_10
 + being_off_Mon_2025_01_06___Thu_2025_01_09
 + being_off_Sat_2025_01_04___Fri_2025_01_10
 + being_off_Sat_2025_01_04___Thu_2025_01_09
 + being_off_Sun_2025_01_05___Fri_2025_01_10
 + being_off_Sun_2025_01_05___Thu_2025_01_09
 + being_off_Thu_2025_01_02___Fri_2025_01_10
 + being_off_Thu_2025_01_02___Thu_2025_01_09
 + being_off_Thu_2025_01_09___Fri_2025_01_10
 + being_off_Thu_2025_01_09___Thu_2025_01_09
 + being_off_Tue_2025_01_07___Fri_2025_01_10
 + being_off_Tue_2025_01_07___Thu_2025_01_09
 + being_off_Wed_2025_01_01___Fri_2025_01_10
 + being_off_Wed_2025_01_01___Thu_2025_01_09
 + being_off_Wed_2025_01_08___Fri_2025_01_10
 + being_off_Wed_2025_01_08___Thu_2025_01_09 <= 1
OnePeriodPerDay_2025_01_10: being_off_Fri_2025_01_03___Fri_2025_01_10
 + being_off_Fri_2025_01_10___Fri_2025_01_10
 + being_off_Mon_2025_01_06___Fri_2025_01_10
 + being_off_Sat_2025_01_04___Fri_2025_01_10
 + being_off_Sun_2025_01_05___Fri_2025_01_10
 + being_off_Thu_2025_01_02___Fri_2025_01_10
 + being_off_Thu_2025_01_09___Fri_2025_01_10
 + being_off_Tue_2025_01_07___Fri_2025_01_10
 + being_off_Wed_2025_01_01___Fri_2025_01_10
 + being_off_Wed_2025_01_08___Fri_2025_01_10 <= 1
Bounds
Binaries
being_off_Fri_2025_01_03___Fri_2025_01_03
being_off_Fri_2025_01_03___Fri_2025_01_10
being_off_Fri_2025_01_03___Mon_2025_01_06
being_off_Fri_2025_01_03___Sat_2025_01_04
being_off_Fri_2025_01_03___Sun_2025_01_05
being_off_Fri_2025_01_03___Thu_2025_01_09
being_off_Fri_2025_01_03___Tue_2025_01_07
being_off_Fri_2025_01_03___Wed_2025_01_08
being_off_Fri_2025_01_10___Fri_2025_01_10
being_off_Mon_2025_01_06___Fri_2025_01_10
being_off_Mon_2025_01_06___Mon_2025_01_06
being_off_Mon_2025_01_06___Thu_2025_01_09
being_off_Mon_2025_01_06___Tue_2025_01_07
being_off_Mon_2025_01_06___Wed_2025_01_08
being_off_Sat_2025_01_04___Fri_2025_01_10
being_off_Sat_2025_01_04___Mon_2025_01_06
being_off_Sat_2025_01_04___Sat_2025_01_04
being_off_Sat_2025_01_04___Sun_2025_01_05
being_off_Sat_2025_01_04___Thu_2025_01_09
being_off_Sat_2025_01_04___Tue_2025_01_07
being_off_Sat_2025_01_04___Wed_2025_01_08
being_off_Sun_2025_01_05___Fri_2025_01_10
being_off_Sun_2025_01_05___Mon_2025_01_06
being_off_Sun_2025_01_05___Sun_2025_01_05
being_off_Sun_2025_01_05___Thu_2025_01_09
being_off_Sun_2025_01_05___Tue_2025_01_07
being_off_Sun_2025_01_05___Wed_2025_01_08
being_off_Thu_2025_01_02___Fri_2025_01_03
being_off_Thu_2025_01_02___Fri_2025_01_10
being_off_Thu_2025_01_02___Mon_2025_01_06
being_off_Thu_2025_01_02___Sat_2025_01_04
being_off_Thu_2025_01_02___Sun_2025_01_05
being_off_Thu_2025_01_02___Thu_2025_01_02
being_off_Thu_2025_01_02___Thu_2025_01_09
being_off_Thu_2025_01_02___Tue_2025_01_07
being_off_Thu_2025_01_02___Wed_2025_01_08
being_off_Thu_2025_01_09___Fri_2025_01_10
being_off_Thu_2025_01_09___Thu_2025_01_09
being_off_Tue_2025_01_07___Fri_2025_01_10
being_off_Tue_2025_01_07___Thu_2025_01_09
being_off_Tue_2025_01_07___Tue_2025_01_07
being_off_Tue_2025_01_07___Wed_2025_01_08
being_off_Wed_2025_01_01___Fri_2025_01_03
being_off_Wed_2025_01_01___Fri_2025_01_10
being_off_Wed_2025_01_01___Mon_2025_01_06
being_off_Wed_2025_01_01___Sat_2025_01_04
being_off_Wed_2025_01_01___Sun_2025_01_05
being_off_Wed_2025_01_01___Thu_2025_01_02
being_off_Wed_2025_01_01___Thu_2025_01_09
being_off_Wed_2025_01_01___Tue_2025_01_07
being_off_Wed_2025_01_01___Wed_2025_01_01
being_off_Wed_2025_01_01___Wed_2025_01_08
being_off_Wed_2025_01_08___Fri_2025_01_10
being_off_Wed_2025_01_08___Thu_2025_01_09
being_off_Wed_2025_01_08___Wed_2025_01_08
End
